File/outputFile/tourFile/lkh_output5.txt
NAME : ../File/prFile/tspFile/tsp_file5.tsp.431.tour
COMMENT : Length = 431
COMMENT : Found by LKH-3 [Keld Helsgaun] Wed Jun 14 17:47:17 2023
TYPE : TOUR
DIMENSION : 30
TOUR_SECTION
1
3
5
28
20
4
26
14
29
12
18
8
23
24
17
19
9
10
25
30
11
27
22
16
2
21
13
15
6
7
-1
EOF
